NAME          COPTPROB
OBJSENSE
  MIN
ROWS
 N  __OBJ___
 L  C2      
 L  C3      
 L  C19     
 L  C26     
 L  C29     
 L  C39     
 L  C40     
 L  C43     
 L  C52     
 L  C53     
 L  C69     
 L  C75     
 L  C76     
 L  C89     
 L  C91     
 L  C92     
 L  C106    
 L  C107    
 L  C115    
 L  C129    
 L  C137    
 L  C140    
 L  C143    
 L  C155    
 L  C163    
 L  C167    
 L  C168    
 L  C180    
COLUMNS
    MARKER    'MARKER'                 'INTORG'
    x20       __OBJ___  102
    x20       C168      -1
    x51       __OBJ___  497
    x51       C75       -1
    x51       C167      -1
    x66       __OBJ___  328
    x66       C52       -1
    x66       C106      -1
    x80       __OBJ___  169
    x80       C91       -1
    x80       C92       -1
    x119      __OBJ___  240
    x119      C19       -1
    x119      C53       -1
    x132      __OBJ___  465
    x132      C39       -1
    x132      C115      -1
    x135      __OBJ___  375
    x135      C29       -1
    x135      C52       -1
    x169      __OBJ___  296
    x169      C43       -1
    x169      C143      -1
    x208      __OBJ___  420
    x208      C91       -1
    x208      C137      -1
    x213      __OBJ___  103
    x213      C2        -1
    x213      C29       -1
    x235      __OBJ___  206
    x235      C75       -1
    x235      C92       -1
    x251      __OBJ___  213
    x251      C3        -1
    x251      C163      -1
    x318      __OBJ___  7
    x318      C76       -1
    x318      C155      -1
    x334      __OBJ___  174
    x334      C39       -1
    x334      C140      -1
    x348      __OBJ___  412
    x348      C53       -1
    x348      C167      -1
    x368      __OBJ___  131
    x368      C76       -1
    x368      C180      -1
    x379      __OBJ___  21
    x379      C2        -1
    x379      C107      -1
    x424      __OBJ___  424
    x424      C137      -1
    x424      C143      -1
    x442      __OBJ___  403
    x442      C89       -1
    x442      C106      -1
    x461      __OBJ___  99
    x461      C29       -1
    x504      __OBJ___  171
    x504      C19       -1
    x510      __OBJ___  135
    x510      C53       -1
    x518      __OBJ___  356
    x518      C137      -1
    x557      __OBJ___  288
    x557      C43       -1
    x557      C180      -1
    x571      __OBJ___  211
    x571      C43       -1
    x609      __OBJ___  259
    x609      C26       -1
    x609      C106      -1
    x612      __OBJ___  174
    x612      C3        -1
    x612      C26       -1
    x641      __OBJ___  196
    x641      C91       -1
    x641      C168      -1
    x673      __OBJ___  63
    x673      C140      -1
    x673      C155      -1
    x674      __OBJ___  58
    x674      C40       -1
    x674      C129      -1
    x681      __OBJ___  19
    x681      C40       -1
    x681      C107      -1
    x745      __OBJ___  131
    x745      C129      -1
    x745      C143      -1
    x746      __OBJ___  160
    x746      C3        -1
    x757      __OBJ___  68
    x757      C69       -1
    x757      C92       -1
    x764      __OBJ___  334
    x764      C89       -1
    x764      C115      -1
    x773      __OBJ___  55
    x773      C69       -1
    x773      C163      -1
    x775      __OBJ___  231
    x775      C19       -1
    x775      C168      -1
    MARKER    'MARKER'                 'INTEND'
RHS
    RHS       __OBJ___  -16270
    RHS       C2        -1
    RHS       C3        -1
    RHS       C19       -1
    RHS       C26       -1
    RHS       C29       -1
    RHS       C39       -1
    RHS       C40       -1
    RHS       C43       -1
    RHS       C52       -1
    RHS       C53       -1
    RHS       C69       -1
    RHS       C75       -1
    RHS       C76       -1
    RHS       C89       -1
    RHS       C91       -1
    RHS       C92       -1
    RHS       C106      -1
    RHS       C107      -1
    RHS       C115      -1
    RHS       C129      -1
    RHS       C137      -1
    RHS       C140      -1
    RHS       C143      -1
    RHS       C155      -1
    RHS       C163      -1
    RHS       C167      -1
    RHS       C168      -1
    RHS       C180      -1
BOUNDS
 UP BOUND     x20       1
 UP BOUND     x51       1
 UP BOUND     x66       1
 UP BOUND     x80       1
 UP BOUND     x119      1
 UP BOUND     x132      1
 UP BOUND     x135      1
 UP BOUND     x169      1
 UP BOUND     x208      1
 UP BOUND     x213      1
 UP BOUND     x235      1
 UP BOUND     x251      1
 UP BOUND     x318      1
 UP BOUND     x334      1
 UP BOUND     x348      1
 UP BOUND     x368      1
 UP BOUND     x379      1
 UP BOUND     x424      1
 UP BOUND     x442      1
 UP BOUND     x461      1
 UP BOUND     x504      1
 UP BOUND     x510      1
 UP BOUND     x518      1
 UP BOUND     x557      1
 UP BOUND     x571      1
 UP BOUND     x609      1
 UP BOUND     x612      1
 UP BOUND     x641      1
 UP BOUND     x673      1
 UP BOUND     x674      1
 UP BOUND     x681      1
 UP BOUND     x745      1
 UP BOUND     x746      1
 UP BOUND     x757      1
 UP BOUND     x764      1
 UP BOUND     x773      1
 UP BOUND     x775      1
ENDATA
